benchmarks1/other_tools/Z3/check/ex1.txt
iteration 1
    "1+0.158799402811*x1-0.00294889852037*x1^2"

历时 0.724565 秒。
iteration 2
    "1+0.376894383136*x1-0.00571647096867*x1^2"

历时 0.958229 秒。
iteration 3
    "1+0.789579170739*x1-0.01015111685*x1^2"

历时 1.180277 秒。
iteration 4
    "1+0.849497143275*x1-0.0108353545303*x1^2"

历时 1.400742 秒。
iteration 5
    "1+0.958319969973*x1-0.0118547020977*x1^2"

历时 1.628732 秒。
iteration 6
    "1+0.982703009007*x1-0.0120951123542*x1^2"

历时 1.846090 秒。
iteration 7
    "1+0.98705911598*x1-0.0121405179703*x1^2"

历时 2.072193 秒。
iteration 8
    "1+0.987607977847*x1-0.0121488820146*x1^2"

历时 2.299488 秒。
iteration 9
    "1+0.987677722376*x1-0.0121493651169*x1^2"

历时 2.532795 秒。
iteration 10
    "1+0.987570942802*x1-0.012145960085*x1^2"

历时 2.756895 秒。
iteration 11
    "1+0.987646043115*x1-0.0121456251602*x1^2"

历时 2.999715 秒。
iteration 12
    "1+0.987764633454*x1-0.0121526595805*x1^2"

历时 3.231189 秒。
iteration 13
    "1+0.987539985233*x1-0.0121459106189*x1^2"

历时 3.465558 秒。
iteration 14
    "1+0.987662526148*x1-0.0121471700529*x1^2"

历时 3.709132 秒。
iteration 15
    "1+0.987688754606*x1-0.0121486997063*x1^2"

历时 3.957794 秒。
iteration 16
    "1+0.9876694552*x1-0.0121499993983*x1^2"

历时 4.210215 秒。
iteration 17
    "1+0.987710515738*x1-0.0121497517213*x1^2"

历时 4.468269 秒。
iteration 18
    "1+0.987613827553*x1-0.0121465745759*x1^2"

历时 4.728174 秒。
iteration 19
    "1+0.987613768443*x1-0.0121461703409*x1^2"

历时 4.978111 秒。
iteration 20
    "1+0.987651024193*x1-0.0121449532848*x1^2"
